nApps = 232
nRes = 9
nActs = 458
nNetworks = 6

assignmentToResources = [1,3,2,3,1,3,1,1,1,1,2,3,2,3,2,1,1,3,1,1,2,3,3,1,3,3,2,1,3,1,3,1,2,3,2,2,3,1,2,1,3,1,1,1,3,3,3,3,2,3,3,3,3,2,3,1,3,3,1,1,1,1,1,3,3,3,3,1,1,2,2,3,2,1,2,1,1,1,3,1,2,2,2,2,2,3,2,3,3,2,2,2,3,2,1,3,1,3,3,2,4,4,4,4,4,6,6,6,5,5,4,4,4,4,6,6,6,4,4,4,4,4,4,4,5,5,6,6,6,6,5,6,6,6,5,5,4,4,4,4,4,6,6,4,4,4,4,4,4,4,5,6,6,4,4,4,6,6,6,5,5,5,4,4,4,4,4,6,6,4,4,4,4,4,4,4,5,5,6,6,6,5,6,6,4,4,4,4,5,4,6,6,4,4,4,4,4,4,4,6,6,6,6,5,5,6,6,6,6,6,5,6,6,6,6,4,4,4,4,4,4,4,4,6,6,6,4,4,4,5,5,4,6,6,4,5,5,5,5,5,5,5,5,6,6,6,6,6,5,5,4,4,4,4,6,6,6,6,5,5,4,8,4,9,6,7,6,8,5,9,4,9,6,7,6,8,5,9,5,9,6,8,5,9,5,7,6,8,4,9,5,9,4,9,5,7,5,7,9,9,8,9,8,8,7,8,9,9,8,8,9,8,8,7,7,8,8,8,9,8,9,9,9,9,8,8,7,8,9,7,8,7,7,9,8,8,9,8,8,7,8,9,8,9,9,8,9,8,9,7,8,9,9,8,8,8,8,9,9,9,8,8,8,8,8,7,8,8,9,9,9,8,8,8,7,9,7,8,7,7,8,8,9,9,9,8,9,9,7,7,8,8,8,9,9,8,8,8,7,7,7,9,9,8,7,7,7,8,7,7,7,8,7,9,8,9,9,8,9,9,9,8,8,7,8,9,9,7,7,9,8,8,8,7,9,9,7,7,9,7,7,7,8,7,7,7,9,7,8,9,9,9,8,7,8,7,9,7];

processingTimes = [80,104,144,144,152,136,48,88,128,152,168,136,136,96,136,96,160,72,112,80,112,128,104,136,112,160,168,168,104,104,104,88,136,104,136,136,120,104,104,128,104,128,56,136,128,128,104,136,128,104,64,56,104,104,136,112,152,88,112,80,112,88,104,120,88,128,128,120,104,120,128,128,144,120,96,120,144,136,144,136,128,112,64,168,88,72,104,144,168,136,168,80,80,128,128,88,144,96,136,112,3,4,1000,4,8,4,1000,3,4,4,1000,1000,3,1000,11,3,3,13,8,8,1000,4,4,7,4,4,4,1000,1000,4,4,3,3,4,3,3,1000,4,4,3,5,13,4,3,1000,3,4,1000,1000,1000,4,3,3,1000,4,1000,3,3,3,3,1000,5,4,3,3,1000,3,3,3,8,1000,4,3,3,3,3,5,4,1000,13,13,3,1000,4,4,4,4,4,4,8,3,4,3,4,1000,1000,3,3,3,3,3,3,3,3,4,3,8,3,4,3,1000,3,3,4,4,4,3,1000,3,4,4,13,4,1000,200,4,4,1000,4,3,500,8,4,8,3,4,3,3,8,3,4,4,3,4,4,500,4,13,4,1000,3,1000,4,3,3,3,3,4,1000,4,3,3,4,4,3,3,3,3,5,5,4,4,3,3,3,3,8,8,3,3,3,3,4,4,7,7,4,4,4,4,3,3,1000,1000,1000,1000,4,4,3,4,1000,4,8,4,1000,3,4,4,1000,1000,3,1000,11,3,3,13,8,8,1000,4,4,7,4,4,4,1000,1000,4,4,3,3,4,3,3,1000,4,4,3,5,13,4,3,1000,3,4,1000,1000,1000,4,3,3,1000,4,1000,3,3,3,3,1000,5,4,3,3,1000,3,3,3,8,1000,4,3,3,3,3,5,4,1000,13,13,3,1000,4,4,4,4,4,4,8,3,4,3,4,1000,1000,3,3,3,3,3,3,3,3,4,3,8,3,4,3,1000,3,3,4,4,4,3,1000,3,4,4,13,4,1000,200,4,4,1000,4,3,500,8,4,8,3,4,3,3,8,3,4,4,3,4,4,500,4,13,4,1000,3,1000,4,3,3,3,3,4,1000,4];

periods = [10000,10000,20000,20000,100000,100000,100000,100000,100000,20000,10000,20000,20000,20000,100000,10000,20000,20000,50000,20000,10000,20000,20000,20000,100000,100000,20000,100000,20000,50000,100000,5000,20000,10000,10000,5000,20000,20000,100000,20000,10000,50000,100000,2000,100000,100000,20000,10000,2000,50000,10000,20000,10000,10000,20000,10000,20000,10000,10000,100000,10000,20000,20000,100000,2000,100000,100000,20000,100000,100000,100000,20000,50000,20000,5000,20000,5000,100000,20000,100000,100000,100000,50000,100000,20000,5000,10000,100000,10000,20000,10000,20000,10000,20000,50000,100000,20000,100000,10000,100000,10000,10000,10000,10000,10000,10000,10000,10000,20000,20000,100000,100000,100000,100000,100000,100000,100000,100000,100000,100000,100000,20000,20000,20000,10000,10000,20000,20000,20000,20000,20000,20000,20000,20000,100000,100000,10000,10000,20000,20000,20000,20000,20000,50000,50000,20000,20000,20000,20000,20000,10000,20000,20000,20000,20000,20000,100000,100000,100000,20000,20000,20000,100000,100000,100000,100000,100000,20000,20000,50000,50000,50000,5000,5000,5000,5000,20000,20000,10000,10000,10000,5000,20000,20000,20000,20000,20000,20000,100000,20000,10000,10000,50000,50000,100000,100000,100000,100000,2000,100000,20000,20000,10000,2000,2000,50000,50000,10000,20000,10000,10000,20000,10000,10000,10000,10000,10000,100000,100000,10000,10000,20000,20000,100000,2000,100000,100000,20000,20000,5000,5000,100000,20000,20000,100000,100000,100000,100000,50000,100000,20000,20000,20000,5000,5000,5000,10000,10000,20000,20000,50000,20000,20000,20000,100000,100000,100000,10000,100000,100000,10000,10000,20000,20000,20000,20000,20000,20000,20000,20000,20000,20000,20000,20000,100000,100000,100000,100000,100000,100000,100000,100000,100000,100000,10000,10000,10000,10000,10000,10000,10000,10000,10000,10000,10000,10000,10000,10000,10000,10000,10000,10000,10000,10000,10000,10000,20000,20000,100000,100000,100000,100000,100000,100000,100000,100000,100000,100000,100000,20000,20000,20000,10000,10000,20000,20000,20000,20000,20000,20000,20000,20000,100000,100000,10000,10000,20000,20000,20000,20000,20000,50000,50000,20000,20000,20000,20000,20000,10000,20000,20000,20000,20000,20000,100000,100000,100000,20000,20000,20000,100000,100000,100000,100000,100000,20000,20000,50000,50000,50000,5000,5000,5000,5000,20000,20000,10000,10000,10000,5000,20000,20000,20000,20000,20000,20000,100000,20000,10000,10000,50000,50000,100000,100000,100000,100000,2000,100000,20000,20000,10000,2000,2000,50000,50000,10000,20000,10000,10000,20000,10000,10000,10000,10000,10000,100000,100000,10000,10000,20000,20000,100000,2000,100000,100000,20000,20000,5000,5000,100000,20000,20000,100000,100000,100000,100000,50000,100000,20000,20000,20000,5000,5000,5000,10000,10000,20000,20000,50000,20000,20000,20000,100000,100000,100000,10000,100000,100000];

assignmentToClusters = [1,2,3,4,5,6,7,8,9,10,11,12,13,14,15,16,12,17,18,19,20,21,13,22,23,24,25,26,27,28,15,29,13,30,1,31,32,33,15,13,34,35,26,36,37,38,39,40,41,42,43,44,45,40,12,40,46,47,16,48,49,12,13,50,51,15,15,52,48,53,54,13,55,56,57,58,59,26,60,26,61,62,63,15,64,65,49,6,16,66,16,67,20,68,69,70,71,15,72,15,73,74,75,76,77,78,79,80,81,82,83,84,85,86,87,88,89,90,91,92,93,94,95,96,97,98,99,100,101,102,103,104,105,106,107,108,109,110,111,112,113,114,115,116,117,118,119,120,121,122,123,124,125,126,127,128,129,130,131,132,133,134,135,136,137,138,139,140,141,142,143,144,145,146,147,148,149,150,151,152,153,154,155,156,157,158,159,160,161,162,163,164,165,166,167,168,169,170,171,172,173,174,175,176,177,178,179,180,181,182,183,184,185,186,187,188,189,190,191,192,193,194,195,196,197,198,199,200,201,202,203,204,205,206,207,208,209,210,211,212,213,214,215,216,217,218,219,220,221,222,223,224,225,226,227,228,229,230,231,232,1,1,12,12,12,12,13,13,13,13,13,13,13,13,15,15,15,15,15,15,15,15,15,15,16,16,16,16,16,16,20,20,40,40,40,40,49,49,73,74,75,76,77,78,79,80,81,82,83,84,85,86,87,88,89,90,91,92,93,94,95,96,97,98,99,100,101,102,103,104,105,106,107,108,109,110,111,112,113,114,115,116,117,118,119,120,121,122,123,124,125,126,127,128,129,130,131,132,133,134,135,136,137,138,139,140,141,142,143,144,145,146,147,148,149,150,151,152,153,154,155,156,157,158,159,160,161,162,163,164,165,166,167,168,169,170,171,172,173,174,175,176,177,178,179,180,181,182,183,184,185,186,187,188,189,190,191,192,193,194,195,196,197,198,199,200,201,202,203,204,205,206,207,208,209,210,211,212,213,214,215,216,217,218,219,220,221,222,223,224,225,226,227,228,229,230,231,232];

precedenceAdjList = [[],[],[],[],[],[87],[],[],[],[],[],[263],[267],[],[275],[285],[265],[],[],[],[],[],[269,271],[],[],[],[],[42],[],[],[277,279],[],[],[],[261],[],[],[],[281],[],[],[],[],[],[],[],[],[293],[],[],[],[],[],[],[11],[295],[],[],[],[],[297],[],[273],[],[],[],[30],[],[59],[],[],[22],[],[],[],[],[],[27],[],[77],[],[],[],[],[],[],[],[],[289],[],[287],[],[291],[],[],[],[],[283],[],[38],[],[],[],[],[],[],[],[],[],[],[],[],[],[],[],[],[],[],[],[],[],[],[],[],[],[],[],[],[],[],[],[],[],[],[],[],[],[],[],[],[],[],[],[],[],[],[],[],[],[],[],[],[],[],[],[],[],[],[],[],[],[],[],[],[],[],[],[],[],[],[],[],[],[],[],[],[],[],[],[],[],[],[],[],[],[],[],[],[],[],[],[],[],[],[],[],[],[],[],[],[],[],[],[],[],[],[],[],[],[],[],[],[],[],[],[],[],[],[],[],[],[],[],[],[],[],[],[],[],[],[],[],[],[],[],[],[],[],[],[],[],[],[],[],[],[],[],[],[],[],[],[],[],[],[],[],[],[],[],[],[0],[260],[61],[262],[54],[264],[22],[266],[32],[268],[39],[270],[71],[272],[30],[274],[38],[276],[83],[278],[65],[280],[99],[282],[90],[284],[88],[286],[58],[288],[20],[290],[55],[292],[53],[294],[86],[296],[100],[101],[102],[103],[104],[105],[106],[107],[108],[109],[110],[111],[112],[113],[114],[115],[116],[117],[118],[119],[120],[121],[122],[123],[124],[125],[126],[127],[128],[129],[130],[131],[132],[133],[134],[135],[136],[137],[138],[139],[140],[141],[142],[143],[144],[145],[146],[147],[148],[149],[150],[151],[152],[153],[154],[155],[156],[157],[158],[159],[160],[161],[162],[163],[164],[165],[166],[167],[168],[169],[170],[171],[172],[173],[174],[175],[176],[177],[178],[179],[180],[181],[182],[183],[184],[185],[186],[187],[188],[189],[190],[191],[192],[193],[194],[195],[196],[197],[198],[199],[200],[201],[202],[203],[204],[205],[206],[207],[208],[209],[210],[211],[212],[213],[214],[215],[216],[217],[218],[219],[220],[221],[222],[223],[224],[225],[226],[227],[228],[229],[230],[231],[232],[233],[234],[235],[236],[237],[238],[239],[240],[241],[242],[243],[244],[245],[246],[247],[248],[249],[250],[251],[252],[253],[254],[255],[256],[257],[258],[259]];